c --- [ banner ] -------------------------------------------------------------
c 
c CaDiCaL Radically Simplified CDCL SAT Solver
c Copyright (c) 2016-2021 A. Biere, M. Fleury, N. Froleyks
c 
c Version 1.5.2 a5f15211db36c3956764e18194dd5bd63bf3b5e6
c g++ (GCC) 9.3.0 -Wall -Wextra -O3 -DNDEBUG
c Fri Oct 21 01:27:37 EDT 2022 Linux gra-login3 3.10.0-1160.66.1.el7.x86_64 x86_64
c 
c --- [ limit ] --------------------------------------------------------------
c 
c setting conflict limit to 200000 conflicts (due to '200000')
c 
c --- [ parsing input ] ------------------------------------------------------
c 
c reading DIMACS file from '33.cubes1428.adj'
c opening file to read '33.cubes1428.adj'
c found 'p cnf 6160 1595473' header
c parsed 1595473 clauses in 18.94 seconds process time
c closing file '33.cubes1428.adj'
c after reading 1457566761 bytes 1390.0 MB
c 
c --- [ options ] ------------------------------------------------------------
c 
c all options are set to their default value
c 
c --- [ solving ] ------------------------------------------------------------
c 
c time measured in process time since initialization
c 
c  seconds    reductions  redundant   irredundant
c          MB     restarts       trail       variables
c            level   conflicts       glue         remaining
c 
c * 18.94 1368  0 0   0    0    0  0% 0 1595422 2462 40%
c { 19.74 1405  0 0   0    0    0  0% 0 1595422 2462 40%
c i 20.55 1437 1078 0   0   12   11 37% 1 1595422 2453 40%
c i 21.64 1459 683 0   3   28   22 33% 9 1595422 2437 40%
c i 21.90 1463 415 0   7   48   40 31% 16 1595422 2430 39%
c i 21.92 1463 406 0   7   49   40 31% 15 1595422 2429 39%
c i 21.94 1463 349 0   9   57   46 31% 15 1595422 2428 39%
c i 22.35 1469 287 0  12   76   61 30% 19 1595422 2394 39%
c i 24.37 1478 182 0  33  167  134 27% 33 1595422 2392 39%
c i 24.47 1479 175 0  36  176  139 27% 31 1595422 2391 39%
c i 24.68 1480 168 0  40  193  154 27% 32 1595422 2390 39%
c i 24.69 1480 165 0  41  196  156 27% 32 1595422 2389 39%
c i 24.73 1480 163 0  42  199  158 27% 32 1595422 2388 39%
c i 24.84 1480 163 0  42  202  160 27% 31 1595422 2387 39%
c i 24.89 1480 162 0  42  209  165 27% 32 1595422 2386 39%
c i 25.06 1480 161 0  42  227  179 27% 31 1595422 2384 39%
c i 25.15 1481 160 0  43  234  185 27% 33 1595422 2383 39%
c i 25.16 1481 159 0  44  235  185 27% 32 1595422 2382 39%
c i 25.21 1481 158 0  44  237  186 27% 32 1595422 2381 39%
c i 25.46 1481 153 0  46  251  197 27% 32 1595422 2380 39%
c 
c  seconds     reductions  redundant    irredundant
c          MB      restarts       trail        variables
c             level   conflicts       glue          remaining
c 
c i 25.53 1481 149 0  47  261  205 27% 32 1595422 2379 39%
c i 25.56 1481 146 0  47  269  212 27% 32 1595422 2378 39%
c i 25.66 1481 137 0  47  300  233 27% 31 1595422 2377 39%
c - 29.15 1411 137 1  47  300  233 27% 31 195165 2377 39%
c i 29.31 1411 135 1  47  307  239 27% 31 195165 2376 39%
c i 29.42 1365 132 1  47  318  249 27% 31 195165 2375 39%
c i 29.44 1365 131 1  47  320  250 27% 31 195165 2374 39%
c i 29.44 1365 131 1  47  322  251 27% 31 195165 2373 39%
c i 29.50 1365 125 1  47  350  274 27% 31 195165 2372 39%
c i 29.50 1365 124 1  47  353  276 27% 31 195165 2371 38%
c i 29.50 1365 123 1  47  354  276 27% 31 195165 2370 38%
c i 29.58 1365 123 1  47  359  280 27% 31 195165 2369 38%
c i 29.61 1365 121 1  47  366  286 27% 31 195165 2368 38%
c i 29.64 1365 119 1  47  377  292 27% 31 195165 2367 38%
c i 29.69 1365 112 1  47  405  309 27% 30 195165 2366 38%
c i 30.06 1365 106 1  64  480  358 27% 33 195165 2365 38%
c i 30.08 1365 106 1  64  485  362 27% 33 195165 2364 38%
c i 30.23 1365 106 1  66  512  386 27% 34 195165 2363 38%
c i 30.56 1365 101 1  72  571  426 27% 33 195165 2362 38%
c i 30.57 1365 101 1  72  575  429 27% 33 195165 2361 38%
c 
c  seconds     reductions  redundant   irredundant
c          MB      restarts       trail       variables
c             level   conflicts       glue         remaining
c 
c i 30.59 1365 100 1  72  580  433 27% 32 195165 2360 38%
c i 30.59 1365 100 1  72  582  434 27% 32 195165 2359 38%
c i 30.59 1365 100 1  72  583  434 27% 32 195165 2358 38%
c i 30.61 1365 99 1  72  594  443 27% 32 195165 2357 38%
c i 30.61 1365 99 1  72  596  444 27% 32 195165 2356 38%
c i 30.62 1365 98 1  72  597  444 27% 32 195165 2355 38%
c i 30.62 1365 98 1  72  598  444 27% 32 195165 2354 38%
c i 30.62 1365 98 1  72  600  445 27% 32 195165 2353 38%
c i 30.62 1365 98 1  72  602  446 27% 32 195165 2352 38%
c i 30.62 1365 98 1  72  604  447 27% 32 195165 2351 38%
c i 30.63 1365 97 1  72  607  449 27% 31 195165 2350 38%
c i 30.67 1365 97 1  72  609  450 27% 31 195165 2349 38%
c i 30.76 1365 94 1  72  645  480 27% 30 195165 2348 38%
c i 30.77 1365 93 1  72  648  482 27% 30 195165 2347 38%
c i 30.84 1365 92 1  72  659  487 27% 30 195165 2346 38%
c i 30.85 1365 92 1  72  664  491 27% 30 195165 2345 38%
c i 30.89 1365 90 1  72  680  502 27% 29 195165 2344 38%
c i 30.93 1365 87 1  72  717  537 27% 29 195165 2343 38%
c i 30.96 1365 87 1  72  719  538 27% 29 195165 2342 38%
c i 30.97 1365 87 1  72  725  543 27% 29 195165 2341 38%
c 
c  seconds    reductions  redundant   irredundant
c          MB     restarts       trail       variables
c            level   conflicts       glue         remaining
c 
c i 30.98 1365 86 1  72  734  551 27% 29 195165 2340 38%
c i 31.01 1365 85 1  72  752  566 28% 29 195165 2339 38%
c i 31.02 1365 84 1  75  785  586 28% 30 195165 2338 38%
c i 31.05 1365 83 1  75  792  592 28% 29 195165 2337 38%
c i 31.21 1365 82 1  81  818  615 28% 30 195165 2336 38%
c i 31.62 1365 84 1  90  857  648 28% 31 195165 2335 38%
c i 31.84 1365 82 1  98  908  687 28% 30 195165 2334 38%
c i 31.86 1365 82 1  98  917  694 28% 30 195165 2333 38%
c i 31.86 1365 82 1  98  924  699 28% 30 195165 2332 38%
c i 31.88 1365 82 1  98  934  708 28% 30 195165 2331 38%
c i 32.05 1365 83 1 105  969  740 28% 31 195165 2330 38%
c } 32.28 1365 84 1 113 1002  771 28% 31 195165 2330 38%
c [ 32.28 1365  0 1 113 1002  771  0% 0 195165 2330 38%
c O 32.28 1365  1 1 113 1003  772 11% 1 195165 2330 38%
c i 32.30 1365  1 1 113 1007  775 13% 1 195165 2299 37%
c i 32.44 1365  9 1 113 1026  788 20% 6 195165 2298 37%
c i 32.46 1365 11 1 113 1036  797 23% 8 195165 2297 37%
c i 32.46 1365 11 1 113 1037  797 23% 8 195165 2296 37%
c - 32.94 1446 19 2 113 1075  718 28% 15 194482 2296 37%
c i 33.02 1446 21 2 113 1099  732 29% 17 194482 2295 37%
c 
c  seconds    reductions  redundant   irredundant
c          MB     restarts       trail       variables
c            level   conflicts       glue         remaining
c 
c i 33.02 1446 21 2 113 1103  733 29% 17 194482 2294 37%
c i 33.03 1446 20 2 113 1119  744 29% 16 194482 2293 37%
c i 33.04 1446 20 2 113 1129  753 29% 16 194482 2292 37%
c i 33.10 1446 21 2 113 1207  801 31% 17 194482 2291 37%
c i 33.11 1446 21 2 113 1249  826 31% 18 194482 2290 37%
c i 33.21 1446 23 2 113 1484  988 32% 19 194482 2289 37%
c - 33.72 1445 25 3 114 2234 1175 32% 22 194462 2289 37%
c ] 34.23 1445 26 3 114 3002 1649 54% 22 194462 2289 37%
c { 34.23 1445 84 3 114 3002 1649 75% 31 194462 2289 37%
c F 34.31 1445 84 3 115 3004 1651 75% 31 194462 2289 37%
c i 34.38 1445 82 3 116 3031 1669 74% 30 194462 2288 37%
c i 34.41 1445 81 3 116 3062 1695 73% 30 194462 2287 37%
c i 34.68 1445 78 3 131 3209 1811 69% 30 194462 2286 37%
c - 34.98 1365 64 4 134 3780 1597 61% 28 194454 2286 37%
c i 35.51 1365 57 4 145 4356 2096 58% 27 194454 2285 37%
c i 36.88 1366 58 4 199 4750 2432 56% 29 194454 2284 37%
c i 36.89 1366 58 4 199 4758 2439 56% 29 194454 2283 37%
c i 36.94 1366 59 4 199 4782 2459 56% 29 194454 2282 37%
c i 36.97 1366 59 4 200 4825 2493 55% 29 194454 2281 37%
c d 37.55 1366 58 4 214 5000 2633 55% 29 194424 2273 37%
c 
c  seconds    reductions  redundant   irredundant
c          MB     restarts       trail       variables
c            level   conflicts       glue         remaining
c 
c 2 37.59 1366 58 4 214 5000 3565 55% 29 194415 2273 37%
c p 41.31 1366 58 4 214 5000 5621 55% 29 194415 2217 36%
c d 41.59 1366 58 4 214 5000 5532 55% 29 193842 2216 36%
c } 41.91 1366 56 4 220 5148 5630 55% 28 193842 2216 36%
c 1 41.91 1366 56 4 220 5148 5630 55% 28 193842 2216 36%
c 
c --- [ writing output ] -----------------------------------------------------
c 
c writing simplified CNF to DIMACS file 'simp/33.cubes1428.adj.simp1'
c * 41.91 1366 56 4 220 5148 5630 55% 28 193842 2216 36%
c opening file to write 'simp/33.cubes1428.adj.simp1'
c writing 'p cnf 6160 193842' header
c closing file 'simp/33.cubes1428.adj.simp1'
c after writing 88040326 bytes 84.0 MB
c wrote 193842 clauses in 0.62 seconds process time
c 
c --- [ writing extension ] --------------------------------------------------
c 
c writing extension stack to 'simp/33.cubes1428.adj.ext1'
c opening file to write 'simp/33.cubes1428.adj.ext1'
c closing file 'simp/33.cubes1428.adj.ext1'
c after writing 12033 bytes 0.0 MB
c wrote 809 witnesses in 0.00 seconds process time
c 
c --- [ result ] -------------------------------------------------------------
c 
s SATISFIABLE
c 
c --- [ run-time profiling ] -------------------------------------------------
c 
c process time taken by individual solving procedures
c (percentage relative to process time for solving)
c 
c        18.94   82.45% parse
c        18.62   81.08% search
c        15.88   69.12% unstable
c         4.35   18.92% simplify
c         3.72   16.17% probe
c         1.95    8.48% stable
c         0.80    3.47% lucky
c         0.03    0.13% ternary
c   =================================
c        22.97   54.01% solve
c 
c last line shows process time for solving
c (percentage relative to total process time)
c 
c --- [ statistics ] ---------------------------------------------------------
c 
c chronological:              1327        25.78 %  of conflicts
c conflicts:                  5148       224.11    per second
c decisions:                 32456      1412.93    per second
c fixed:                       791        12.84 %  of all variables
c learned:                    5012        97.36 %  per conflict
c learned_lits:             944504       100.00 %  learned literals
c minimized:                     0         0.00 %  learned literals
c shrunken:                 577627        61.16 %  learned literals
c minishrunken:              69334         7.34 %  learned literals
c propagations:            1004761         0.04 M  per second
c reduced:                    1107        21.50 %  per conflict
c rephased:                      2      2574.00    interval
c restarts:                    220        23.40    interval
c stabilizing:                   1        38.85 %  of conflicts
c substituted:                   9         0.15 %  of all variables
c subsumed:                   1091         0.03 %  of all clauses
c ternary:                     933         0.50 %  of resolved
c weakened:                     18         2.00    average size
c 
c seconds are measured in process time for solving
c 
c --- [ resources ] ----------------------------------------------------------
c 
c total process time since initialization:        42.53    seconds
c total real time since initialization:           42.65    seconds
c maximum resident set size of process:         1525.79    MB
c 
c --- [ shutting down ] ------------------------------------------------------
c 
c exit 10
WARNING! DIMACS header mismatch: wrong number of variables.
============================[ Problem Statistics ]=============================
|                                                                             |
|  Number of variables:          6120                                         |
|  Number of clauses:          193842                                         |
|  Parse time:                   1.14 s                                       |
|  Simplification time:          0.02 s                                       |
|                                                                             |
============================[ Search Statistics ]====================================================
| Conflicts |          ORIGINAL         |          LEARNT          | Num Sols |      SUBGRAPHS      |
|           |    Vars  Clauses Literals |    Limit  Clauses Lit/Cl |          | Canonical Noncanon. |
=====================================================================================================
|       102 |    6027   193844 18908194 |     2000      102    122 |        0 |        16         2 |
|       347 |    6027   193939 18910093 |     2000      347     79 |        0 |        40        97 |
|       613 |    6027   193980 18911128 |     2000      613     86 |        0 |        46       138 |
|       950 |    6027   193980 18911128 |     2000      950    104 |        0 |        46       138 |
|      1500 |    6027   194024 18912002 |     2000     1500    107 |        0 |        57       182 |
|      2292 |    6027   194057 18912925 |     3607     1299     75 |        0 |        91       215 |
|      3460 |    6027   194086 18913402 |     3607     2467     93 |        0 |       106       244 |
|      5230 |    6027   194148 18914593 |     5006     2436     70 |        0 |       150       306 |
|      7953 |    6027   194309 18917781 |     6306     2659     49 |        0 |       193       467 |
|     11925 |    6027   194437 18920822 |     7557     3482     45 |        0 |       266       595 |
|     18505 |    6027   195251 18937419 |     8783     6288     69 |        0 |       474      1409 |
|     28081 |    6027   196178 18955312 |    11202     6483     45 |        0 |       771      2336 |
|     43927 |    6027   199050 19008969 |    13612    10539     57 |        0 |      1352      5208 |
|     64290 |    6027   199952 19025865 |    17215     8705     27 |        0 |      1659      6110 |
|     96014 |    6027   202484 19075129 |    20804    12818     42 |        0 |      2265      8642 |
|    142044 |    6027   204725 19118683 |    25608    13652     32 |        0 |      3207     10883 |
|    214508 |    6027   211505 19239021 |    31608    16116     29 |        0 |      4719     17663 |
|    314607 |    6027   213078 19270239 |    37615    31222     65 |        0 |      5019     19236 |
|    483372 |    6027   234054 19665541 |    47216    32788     49 |        0 |     11237     40212 |
|    712585 |    6027   241584 19777682 |    56816    56401     77 |        0 |     15902     47742 |
|   1067169 |    6027   263643 20072248 |    70014    65583     68 |        0 |     19404     69801 |
|   1588148 |    6027   285834 20437623 |    85613    84761     69 |        0 |     29180     91992 |
|   2425746 |    6027   375250 22097371 |   107213    60159     36 |        0 |     50038    181408 |
|   3674503 |    6027   501733 24504611 |   131222   122925     67 |        0 |     97325    307891 |
|   5420407 |    6027   564226 25651657 |   160023   128830     62 |        0 |    127937    370384 |
|   8162224 |    6027   780927 30412218 |   197226   111650     37 |        0 |    196427    587085 |
|  12286867 |    6009   960036 33355028 |   241616   188483     51 |        0 |    342764    924053 |
=====================================================================================================
Number of solutions   : 0
Canonical subgraphs   : 381149         (29 /sec)
          order  3    : 1              (200000 /sec)
          order  4    : 1              (500000 /sec)
          order  5    : 1              (200000 /sec)
          order  6    : 1              (52632 /sec)
          order  7    : 1              (8696 /sec)
          order  8    : 2              (1364 /sec)
          order  9    : 6              (315 /sec)
          order 10    : 20             (181 /sec)
          order 11    : 60             (128 /sec)
          order 12    : 412            (105 /sec)
          order 13    : 2836           (70 /sec)
          order 14    : 23962          (54 /sec)
          order 15    : 117605         (37 /sec)
          order 16    : 139054         (28 /sec)
          order 17    : 74263          (22 /sec)
          order 18    : 14696          (23 /sec)
          order 19    : 5982           (22 /sec)
          order 20    : 1167           (26 /sec)
          order 21    : 1079           (26 /sec)
          order 22    : 0              (-nan /sec)
Noncanonical subgraphs: 1004243        (233 /sec)
          order  3    : 0              (-nan /sec)
          order  4    : 0              (-nan /sec)
          order  5    : 0              (-nan /sec)
          order  6    : 0              (-nan /sec)
          order  7    : 0              (-nan /sec)
          order  8    : 0              (-nan /sec)
          order  9    : 0              (-nan /sec)
          order 10    : 0              (-nan /sec)
          order 11    : 0              (-nan /sec)
          order 12    : 0              (-nan /sec)
          order 13    : 11170          (3543 /sec)
          order 14    : 24979          (2502 /sec)
          order 15    : 737673         (300 /sec)
          order 16    : 152254         (170 /sec)
          order 17    : 76991          (86 /sec)
          order 18    : 22             (140 /sec)
          order 19    : 10             (1096 /sec)
          order 20    : 5              (58 /sec)
          order 21    : 5              (89 /sec)
Canonicity checking   : 12960.4 s
Noncanonicity checking: 4308.96 s
Total canonicity time : 17269.3 s
database reductions   : 213
restarts              : 20855
conflicts             : 14081429       (580 /sec)
decisions             : 18014574       (0.00 % random) (742 /sec)
propagations          : 1643229966     (67658 /sec)
conflict literals     : 1506896985     (56.27 % deleted)
actual reward         : 0.112919
Memory used           : 541.00 MB
CPU time              : 24287.3 s

UNSATISFIABLE
